* ENCODING=ISO-8859-1
NAME          CPLEX
ROWS
 N  obj1    
 G  c1      
 G  c2      
 G  c3      
 G  c4      
 G  c5      
 G  c6      
 G  c7      
 G  c8      
 G  c9      
 G  c10     
 G  c11     
 G  c12     
 G  c13     
 G  c14     
 G  c15     
 G  c16     
 G  c17     
 G  c18     
 G  c19     
 G  c20     
 G  c21     
 G  c22     
 G  c23     
 G  c24     
 G  c25     
 G  c26     
 G  c27     
 G  c28     
 G  c29     
 G  c30     
 G  c31     
 G  c32     
 G  c33     
 G  c34     
 G  c35     
 G  c36     
 G  c37     
 G  c38     
 G  c39     
 G  c40     
 G  c41     
 G  c42     
 G  c43     
 G  c44     
 G  c45     
 G  c46     
 G  c47     
 G  c48     
 G  c49     
 G  c50     
COLUMNS
    MARK0000  'MARKER'                 'INTORG'
    x1        obj1                            1
    x1        c2                            850
    x1        c9                            660
    x1        c17                           415
    x1        c27                           274
    x1        c29                           571
    x1        c42                           533
    x1        c43                           847
    x1        c44                           688
    x2        obj1                            1
    x2        c2                            413
    x2        c14                           957
    x2        c18                           335
    x2        c29                           828
    x2        c31                           284
    x2        c40                           818
    x2        c48                           505
    x3        obj1                            1
    x3        c28                           848
    x3        c45                           386
    x4        obj1                            1
    x4        c2                            406
    x4        c38                           702
    x4        c45                           686
    x4        c47                           654
    x5        obj1                            1
    x5        c4                            702
    x5        c7                            245
    x5        c8                            110
    x5        c21                           558
    x5        c23                           961
    x5        c27                           760
    x5        c29                           437
    x5        c34                           705
    x5        c38                           716
    x6        obj1                            1
    x6        c1                            993
    x6        c10                           425
    x6        c15                           539
    x7        obj1                            1
    x7        c19                           997
    x7        c27                           897
    x7        c30                           740
    x7        c37                           837
    x7        c39                           768
    x7        c40                           175
    x7        c41                           429
    x8        obj1                            1
    x8        c22                           199
    x9        obj1                            1
    x9        c16                           983
    x9        c19                           966
    x9        c49                           483
    x10       obj1                            1
    x10       c1                            294
    x10       c22                           272
    x10       c24                           799
    x10       c36                           876
    x10       c44                           288
    x11       obj1                            1
    x11       c11                           761
    x11       c19                           924
    x11       c31                           291
    x11       c33                           416
    x12       obj1                            1
    x12       c9                            648
    x12       c26                           885
    x12       c42                           814
    x13       obj1                            1
    x13       c3                            568
    x13       c4                            519
    x13       c8                            767
    x13       c30                           178
    x13       c43                           569
    x13       c45                           582
    x13       c49                           490
    x14       obj1                            1
    x14       c6                            134
    x14       c16                           262
    x14       c23                           556
    x14       c37                           954
    x15       obj1                            1
    x15       c22                           340
    x15       c36                           983
    x15       c42                           994
    x16       obj1                            1
    x16       c14                           192
    x16       c15                           242
    x16       c21                           786
    x16       c25                           204
    x16       c26                           917
    x16       c27                           561
    x16       c35                           714
    x16       c43                           613
    x17       obj1                            1
    x17       c4                            201
    x17       c12                           535
    x17       c45                           899
    x18       obj1                            1
    x18       c1                            119
    x18       c18                           827
    x18       c39                           676
    x18       c40                           644
    x18       c50                           633
    x19       obj1                            1
    x19       c7                            258
    x19       c10                           528
    x19       c14                           168
    x19       c30                           570
    x19       c32                           188
    x19       c42                           619
    x20       obj1                            1
    x20       c10                          1000
    x20       c18                           913
    x20       c23                           486
    x20       c39                           287
    x21       obj1                            1
    x21       c9                            862
    x21       c11                           524
    x21       c34                           803
    x21       c35                           459
    x21       c43                           662
    x21       c46                           815
    x22       obj1                            1
    x22       c4                            359
    x22       c9                            256
    x22       c12                           839
    x22       c20                           764
    x22       c21                           634
    x22       c26                           914
    x22       c34                           186
    x22       c50                           296
    x23       obj1                            1
    x23       c7                            466
    x24       obj1                            1
    x24       c15                           476
    x24       c18                           786
    x24       c20                           330
    x24       c24                           341
    x24       c35                           897
    x24       c48                           426
    x25       obj1                            1
    x25       c5                            526
    x25       c11                           932
    x25       c12                           192
    x25       c16                           705
    x25       c38                           257
    x26       obj1                            1
    x26       c1                            284
    x26       c2                            262
    x26       c6                            109
    x26       c29                           404
    x26       c31                           980
    x26       c47                           632
    x27       obj1                            1
    x27       c6                            240
    x27       c49                           813
    x28       obj1                            1
    x28       c17                           344
    x28       c44                           587
    x29       obj1                            1
    x29       c13                           928
    x29       c15                           679
    x29       c35                           440
    x30       obj1                            1
    x30       c8                            841
    x30       c19                           671
    x30       c28                           182
    x30       c37                           278
    x30       c39                           912
    x30       c45                           289
    x31       obj1                            1
    x31       c3                            468
    x31       c4                            415
    x31       c10                           365
    x31       c25                           162
    x31       c32                           875
    x32       obj1                            1
    x32       c4                            448
    x32       c13                           281
    x32       c20                           507
    x32       c21                           471
    x32       c31                           613
    x32       c46                           817
    x32       c48                           585
    x33       obj1                            1
    x33       c5                            888
    x33       c42                           102
    x33       c44                           988
    x34       obj1                            1
    x34       c4                            187
    x34       c17                           933
    x34       c31                           424
    x34       c32                           417
    x34       c41                           664
    x35       obj1                            1
    x35       c8                            838
    x35       c10                           426
    x35       c24                           570
    x35       c44                           754
    x35       c46                           599
    x35       c49                           118
    x36       obj1                            1
    x36       c2                            347
    x36       c15                           471
    x36       c32                           616
    x36       c33                           951
    x36       c36                           413
    x36       c37                           219
    x36       c39                           677
    x37       obj1                            1
    x37       c11                           533
    x37       c13                           186
    x37       c36                           881
    x37       c37                           436
    x37       c48                           398
    x37       c49                           745
    x38       obj1                            1
    x38       c7                            363
    x38       c15                           393
    x38       c19                           351
    x38       c26                           899
    x38       c28                           738
    x38       c31                           852
    x38       c42                           480
    x38       c49                           448
    x38       c50                           305
    x39       obj1                            1
    x39       c5                            196
    x39       c18                           817
    x39       c24                           390
    x39       c26                           176
    x40       obj1                            1
    x40       c19                           374
    x40       c26                           221
    x40       c29                           147
    x40       c31                           419
    x40       c36                           978
    x40       c49                           689
    x41       obj1                            1
    x41       c5                            900
    x41       c18                           592
    x41       c20                           307
    x41       c29                           864
    x41       c32                           975
    x41       c33                           557
    x41       c41                           271
    x41       c47                           332
    x41       c48                           983
    x42       obj1                            1
    x42       c10                           350
    x42       c11                           392
    x42       c14                           116
    x42       c21                           260
    x42       c35                           528
    x43       obj1                            1
    x43       c38                           726
    x43       c39                           124
    x43       c47                           298
    x44       obj1                            1
    x44       c5                            133
    x44       c6                            184
    x44       c12                           896
    x44       c16                           819
    x44       c48                           581
    x45       obj1                            1
    x45       c3                            742
    x45       c7                            416
    x45       c11                           173
    x45       c45                           961
    x45       c48                           826
    x46       obj1                            1
    x46       c18                           541
    x46       c45                           845
    x47       obj1                            1
    x47       c27                           873
    x47       c38                           590
    x47       c40                           290
    x48       obj1                            1
    x48       c5                            272
    x48       c22                           646
    x48       c34                           551
    x48       c39                           181
    x49       obj1                            1
    x49       c5                            885
    x49       c24                           855
    x49       c25                           432
    x49       c40                           106
    x49       c42                           201
    x50       obj1                            1
    x50       c11                           439
    x50       c25                           515
    x50       c34                           191
    MARK0001  'MARKER'                 'INTEND'
RHS
    rhs       c1                            845
    rhs       c2                           1139
    rhs       c3                            889
    rhs       c4                           1416
    rhs       c5                           1900
    rhs       c6                            334
    rhs       c7                            874
    rhs       c8                           1278
    rhs       c9                           1213
    rhs       c10                          1547
    rhs       c11                          1877
    rhs       c12                          1231
    rhs       c13                           698
    rhs       c14                           717
    rhs       c15                          1400
    rhs       c16                          1385
    rhs       c17                           846
    rhs       c18                          2406
    rhs       c19                          2142
    rhs       c20                           954
    rhs       c21                          1355
    rhs       c22                           729
    rhs       c23                          1002
    rhs       c24                          1478
    rhs       c25                           657
    rhs       c26                          2006
    rhs       c27                          1683
    rhs       c28                           884
    rhs       c29                          1626
    rhs       c30                           744
    rhs       c31                          1932
    rhs       c32                          1536
    rhs       c33                           962
    rhs       c34                          1218
    rhs       c35                          1519
    rhs       c36                          2066
    rhs       c37                          1362
    rhs       c38                          1496
    rhs       c39                          1813
    rhs       c40                          1017
    rhs       c41                           682
    rhs       c42                          1872
    rhs       c43                          1346
    rhs       c44                          1653
    rhs       c45                          2324
    rhs       c46                          1116
    rhs       c47                           958
    rhs       c48                          2152
    rhs       c49                          1893
    rhs       c50                           617
BOUNDS
 LI bnd       x1        0
 LI bnd       x2        0
 LI bnd       x3        0
 LI bnd       x4        0
 LI bnd       x5        0
 LI bnd       x6        0
 LI bnd       x7        0
 LI bnd       x8        0
 LI bnd       x9        0
 LI bnd       x10       0
 LI bnd       x11       0
 LI bnd       x12       0
 LI bnd       x13       0
 LI bnd       x14       0
 LI bnd       x15       0
 LI bnd       x16       0
 LI bnd       x17       0
 LI bnd       x18       0
 LI bnd       x19       0
 LI bnd       x20       0
 LI bnd       x21       0
 LI bnd       x22       0
 LI bnd       x23       0
 LI bnd       x24       0
 LI bnd       x25       0
 LI bnd       x26       0
 LI bnd       x27       0
 LI bnd       x28       0
 LI bnd       x29       0
 LI bnd       x30       0
 LI bnd       x31       0
 LI bnd       x32       0
 LI bnd       x33       0
 LI bnd       x34       0
 LI bnd       x35       0
 LI bnd       x36       0
 LI bnd       x37       0
 LI bnd       x38       0
 LI bnd       x39       0
 LI bnd       x40       0
 LI bnd       x41       0
 LI bnd       x42       0
 LI bnd       x43       0
 LI bnd       x44       0
 LI bnd       x45       0
 LI bnd       x46       0
 LI bnd       x47       0
 LI bnd       x48       0
 LI bnd       x49       0
 LI bnd       x50       0
ENDATA
